NAME          ClpDefau
ROWS
 N  OBJROW
 L  R_292_0
 L  R_292_1
 L  R_292_2
 L  R_292_3
 L  R_292_4
 L  R_292_5
 L  R_292_6
 L  R_292_7
 L  R_292_8
 L  R_292_9
 L  R_292_10
 L  R_292_11
 L  R_292_12
 L  R_292_13
 L  R_292_14
 L  R_292_15
 L  R_292_16
 L  R_292_17
 L  R_292_18
 L  R_292_19
 L  R_292_20
 L  R_292_21
 L  R_292_22
 L  R_292_23
 L  R_292_24
 L  R_292_25
 L  R_292_26
 L  R_292_27
 L  R_292_28
 L  R_292_29
 L  R_292_30
 L  R_292_31
COLUMNS
    x_0       OBJROW     -1.           R_292_0   4.          
    x_0       R_292_1   23.            R_292_2   66.         
    x_0       R_292_3   66.            R_292_4   24.         
    x_0       R_292_6   54.            R_292_7   98.         
    x_0       R_292_8   76.            R_292_9   58.         
    x_0       R_292_10  97.            R_292_11  95.         
    x_0       R_292_12  68.            R_292_13  36.         
    x_0       R_292_15  46.            R_292_16  59.         
    x_0       R_292_18  73.            R_292_19  72.         
    x_0       R_292_20  63.            R_292_21  42.         
    x_0       R_292_25  99.            R_292_27  91.         
    x_0       R_292_29  65.            R_292_30  76.         
    x_0       R_292_31  94.         
    x_1       OBJROW     -2.           R_292_0   66.         
    x_1       R_292_1   88.            R_292_2   10.         
    x_1       R_292_3   44.            R_292_4   25.         
    x_1       R_292_6   74.            R_292_7   35.         
    x_1       R_292_8   88.            R_292_10  67.         
    x_1       R_292_11  35.            R_292_12  27.         
    x_1       R_292_14  92.            R_292_15  8.          
    x_1       R_292_16  23.            R_292_17  4.          
    x_1       R_292_18  9.             R_292_19  94.         
    x_1       R_292_21  17.            R_292_23  24.         
    x_1       R_292_24  1.             R_292_25  6.          
    x_1       R_292_26  32.            R_292_27  5.          
    x_1       R_292_28  79.            R_292_29  96.         
    x_1       R_292_30  44.            R_292_31  40.         
    x_2       OBJROW     -2.           R_292_0   99.         
    x_2       R_292_1   6.             R_292_3   80.         
    x_2       R_292_4   61.            R_292_6   88.         
    x_2       R_292_7   14.            R_292_8   17.         
    x_2       R_292_9   100.           R_292_10  66.         
    x_2       R_292_11  44.            R_292_12  78.         
    x_2       R_292_14  90.            R_292_15  18.         
    x_2       R_292_16  33.            R_292_17  21.         
    x_2       R_292_18  59.            R_292_19  66.         
    x_2       R_292_21  5.             R_292_23  57.         
    x_2       R_292_24  11.            R_292_25  80.         
    x_2       R_292_26  80.            R_292_27  33.         
    x_2       R_292_28  36.            R_292_29  1.          
    x_2       R_292_30  50.            R_292_31  15.         
    x_3       OBJROW     -6.           R_292_0   12.         
    x_3       R_292_1   13.            R_292_2   97.         
    x_3       R_292_3   28.            R_292_4   86.         
    x_3       R_292_5   40.            R_292_6   49.         
    x_3       R_292_7   98.            R_292_9   56.         
    x_3       R_292_10  3.             R_292_11  7.          
    x_3       R_292_14  13.            R_292_15  62.         
    x_3       R_292_16  67.            R_292_18  47.         
    x_3       R_292_19  48.            R_292_20  88.         
    x_3       R_292_21  14.            R_292_22  100.        
    x_3       R_292_23  3.             R_292_25  82.         
    x_3       R_292_26  27.            R_292_28  1.          
    x_3       R_292_29  48.            R_292_30  93.         
    x_3       R_292_31  97.         
    x_4       OBJROW     -3.           R_292_0   15.         
    x_4       R_292_1   51.            R_292_2   18.         
    x_4       R_292_3   51.            R_292_5   16.         
    x_4       R_292_6   43.            R_292_7   28.         
    x_4       R_292_8   4.             R_292_9   61.         
    x_4       R_292_10  93.            R_292_11  38.         
    x_4       R_292_12  59.            R_292_13  48.         
    x_4       R_292_14  68.            R_292_16  94.         
    x_4       R_292_20  30.            R_292_21  77.         
    x_4       R_292_22  55.            R_292_23  90.         
    x_4       R_292_25  74.            R_292_26  46.         
    x_4       R_292_27  70.            R_292_28  54.         
    x_4       R_292_30  88.         
    x_5       OBJROW     -5.           R_292_0   17.         
    x_5       R_292_2   91.            R_292_3   88.         
    x_5       R_292_4   23.            R_292_5   15.         
    x_5       R_292_6   97.            R_292_7   43.         
    x_5       R_292_8   92.            R_292_9   22.         
    x_5       R_292_11  91.            R_292_12  46.         
    x_5       R_292_13  74.            R_292_14  60.         
    x_5       R_292_15  4.             R_292_17  95.         
    x_5       R_292_18  66.            R_292_19  36.         
    x_5       R_292_20  91.            R_292_21  53.         
    x_5       R_292_22  61.            R_292_23  71.         
    x_5       R_292_24  96.            R_292_26  93.         
    x_5       R_292_27  80.            R_292_28  86.         
    x_5       R_292_29  82.            R_292_31  68.         
    x_6       OBJROW     -5.           R_292_0   60.         
    x_6       R_292_1   13.            R_292_2   28.         
    x_6       R_292_3   78.            R_292_4   28.         
    x_6       R_292_6   72.            R_292_7   26.         
    x_6       R_292_8   76.            R_292_9   63.         
    x_6       R_292_11  79.            R_292_12  62.         
    x_6       R_292_13  73.            R_292_14  92.         
    x_6       R_292_15  98.            R_292_16  1.          
    x_6       R_292_18  86.            R_292_19  97.         
    x_6       R_292_20  87.            R_292_22  65.         
    x_6       R_292_23  11.            R_292_24  45.         
    x_6       R_292_25  97.            R_292_28  81.         
    x_6       R_292_29  93.            R_292_30  21.         
    x_6       R_292_31  60.         
    x_7       OBJROW     -10.          R_292_0   20.         
    x_7       R_292_1   72.            R_292_2   1.          
    x_7       R_292_3   69.            R_292_5   27.         
    x_7       R_292_7   84.            R_292_8   89.         
    x_7       R_292_9   39.            R_292_10  41.         
    x_7       R_292_11  83.            R_292_13  83.         
    x_7       R_292_14  12.            R_292_15  27.         
    x_7       R_292_16  68.            R_292_18  65.         
    x_7       R_292_19  40.            R_292_20  59.         
    x_7       R_292_21  67.            R_292_22  15.         
    x_7       R_292_23  49.            R_292_25  46.         
    x_7       R_292_26  59.            R_292_27  64.         
    x_7       R_292_28  38.            R_292_29  18.         
    x_7       R_292_31  82.         
    x_8       OBJROW     -4.           R_292_0   35.         
    x_8       R_292_1   13.            R_292_3   97.         
    x_8       R_292_4   48.            R_292_5   18.         
    x_8       R_292_6   30.            R_292_7   71.         
    x_8       R_292_8   52.            R_292_10  36.         
    x_8       R_292_13  89.            R_292_14  42.         
    x_8       R_292_15  97.            R_292_16  91.         
    x_8       R_292_18  92.            R_292_19  80.         
    x_8       R_292_20  10.            R_292_21  51.         
    x_8       R_292_22  34.            R_292_24  62.         
    x_8       R_292_25  24.            R_292_26  49.         
    x_8       R_292_27  4.             R_292_28  22.         
    x_8       R_292_29  94.            R_292_30  56.         
    x_8       R_292_31  42.         
    x_9       OBJROW     -10.          R_292_0   77.         
    x_9       R_292_1   37.            R_292_2   20.         
    x_9       R_292_3   26.            R_292_5   19.         
    x_9       R_292_6   43.            R_292_7   54.         
    x_9       R_292_8   12.            R_292_9   32.         
    x_9       R_292_10  94.            R_292_11  44.         
    x_9       R_292_13  79.            R_292_14  19.         
    x_9       R_292_15  9.             R_292_16  100.        
    x_9       R_292_17  42.            R_292_18  15.         
    x_9       R_292_19  99.            R_292_20  51.         
    x_9       R_292_21  7.             R_292_22  61.         
    x_9       R_292_23  41.            R_292_24  80.         
    x_9       R_292_25  76.            R_292_26  86.         
    x_9       R_292_30  53.            R_292_31  58.         
    x_10      OBJROW     -1.           R_292_0   14.         
    x_10      R_292_1   76.            R_292_2   88.         
    x_10      R_292_3   23.            R_292_4   40.         
    x_10      R_292_5   91.            R_292_6   14.         
    x_10      R_292_7   29.            R_292_8   19.         
    x_10      R_292_9   12.            R_292_10  84.         
    x_10      R_292_11  61.            R_292_12  62.         
    x_10      R_292_13  4.             R_292_14  65.         
    x_10      R_292_15  7.             R_292_16  1.          
    x_10      R_292_18  88.            R_292_19  31.         
    x_10      R_292_20  63.            R_292_21  70.         
    x_10      R_292_22  14.            R_292_23  7.          
    x_10      R_292_24  81.            R_292_25  80.         
    x_10      R_292_26  51.            R_292_28  65.         
    x_10      R_292_29  87.            R_292_30  14.         
    x_11      OBJROW     -10.          R_292_0   27.         
    x_11      R_292_1   26.            R_292_2   56.         
    x_11      R_292_3   17.            R_292_4   39.         
    x_11      R_292_6   61.            R_292_7   68.         
    x_11      R_292_8   36.            R_292_9   90.         
    x_11      R_292_10  71.            R_292_11  4.          
    x_11      R_292_12  97.            R_292_13  25.         
    x_11      R_292_14  6.             R_292_15  81.         
    x_11      R_292_16  34.            R_292_17  61.         
    x_11      R_292_18  95.            R_292_19  29.         
    x_11      R_292_21  5.             R_292_22  14.         
    x_11      R_292_23  89.            R_292_24  24.         
    x_11      R_292_25  12.            R_292_28  38.         
    x_11      R_292_30  42.            R_292_31  36.         
    x_12      OBJROW     -3.           R_292_1   9.          
    x_12      R_292_2   54.            R_292_3   5.          
    x_12      R_292_4   85.            R_292_6   94.         
    x_12      R_292_7   3.             R_292_8   43.         
    x_12      R_292_9   94.            R_292_10  68.         
    x_12      R_292_11  26.            R_292_12  17.         
    x_12      R_292_13  58.            R_292_16  79.         
    x_12      R_292_17  25.            R_292_18  57.         
    x_12      R_292_19  61.            R_292_21  10.         
    x_12      R_292_22  78.            R_292_23  61.         
    x_12      R_292_24  79.            R_292_25  74.         
    x_12      R_292_27  40.            R_292_29  39.         
    x_12      R_292_30  4.             R_292_31  41.         
    x_13      OBJROW     -7.           R_292_0   69.         
    x_13      R_292_1   93.            R_292_2   57.         
    x_13      R_292_3   61.            R_292_5   75.         
    x_13      R_292_6   28.            R_292_7   78.         
    x_13      R_292_8   93.            R_292_9   76.         
    x_13      R_292_10  36.            R_292_11  64.         
    x_13      R_292_12  31.            R_292_13  39.         
    x_13      R_292_16  80.            R_292_17  43.         
    x_13      R_292_18  90.            R_292_19  53.         
    x_13      R_292_20  28.            R_292_21  34.         
    x_13      R_292_22  18.            R_292_24  56.         
    x_13      R_292_25  59.            R_292_26  61.         
    x_13      R_292_28  31.            R_292_29  69.         
    x_13      R_292_30  12.            R_292_31  70.         
    x_14      OBJROW     -7.           R_292_0   7.          
    x_14      R_292_1   56.            R_292_2   66.         
    x_14      R_292_3   47.            R_292_4   67.         
    x_14      R_292_6   9.             R_292_7   95.         
    x_14      R_292_8   36.            R_292_9   62.         
    x_14      R_292_10  84.            R_292_11  42.         
    x_14      R_292_12  7.             R_292_13  83.         
    x_14      R_292_14  98.            R_292_15  72.         
    x_14      R_292_16  87.            R_292_17  56.         
    x_14      R_292_18  5.             R_292_19  85.         
    x_14      R_292_20  7.             R_292_22  44.         
    x_14      R_292_23  13.            R_292_24  14.         
    x_14      R_292_25  45.            R_292_26  82.         
    x_14      R_292_27  62.            R_292_29  20.         
    x_14      R_292_30  44.            R_292_31  82.         
    x_15      OBJROW     -9.           R_292_0   87.         
    x_15      R_292_2   7.             R_292_4   70.         
    x_15      R_292_5   99.            R_292_6   54.         
    x_15      R_292_7   24.            R_292_8   6.          
    x_15      R_292_9   98.            R_292_12  38.         
    x_15      R_292_13  6.             R_292_15  29.         
    x_15      R_292_16  47.            R_292_17  77.         
    x_15      R_292_19  71.            R_292_20  1.          
    x_15      R_292_21  11.            R_292_22  36.         
    x_15      R_292_23  29.            R_292_24  67.         
    x_15      R_292_27  17.            R_292_28  17.         
    x_15      R_292_29  48.            R_292_30  74.         
    x_15      R_292_31  57.         
    x_16      OBJROW     -6.           R_292_1   83.         
    x_16      R_292_2   64.            R_292_3   17.         
    x_16      R_292_5   33.            R_292_6   20.         
    x_16      R_292_7   73.            R_292_8   57.         
    x_16      R_292_9   25.            R_292_10  35.         
    x_16      R_292_11  46.            R_292_12  5.          
    x_16      R_292_14  4.             R_292_15  4.          
    x_16      R_292_17  73.            R_292_18  35.         
    x_16      R_292_19  92.            R_292_20  67.         
    x_16      R_292_22  85.            R_292_23  69.         
    x_16      R_292_24  37.            R_292_26  54.         
    x_16      R_292_27  88.            R_292_29  84.         
    x_16      R_292_30  50.            R_292_31  77.         
    x_17      OBJROW     -9.           R_292_0   67.         
    x_17      R_292_1   95.            R_292_3   79.         
    x_17      R_292_5   95.            R_292_6   72.         
    x_17      R_292_7   19.            R_292_8   84.         
    x_17      R_292_9   58.            R_292_10  93.         
    x_17      R_292_12  41.            R_292_13  52.         
    x_17      R_292_14  92.            R_292_15  34.         
    x_17      R_292_16  86.            R_292_17  76.         
    x_17      R_292_18  59.            R_292_19  2.          
    x_17      R_292_21  78.            R_292_22  52.         
    x_17      R_292_23  42.            R_292_24  68.         
    x_17      R_292_25  52.            R_292_26  31.         
    x_17      R_292_27  13.            R_292_28  45.         
    x_17      R_292_29  64.            R_292_30  91.         
    x_17      R_292_31  43.         
    x_18      OBJROW     -8.           R_292_0   84.         
    x_18      R_292_4   74.            R_292_5   95.         
    x_18      R_292_6   22.            R_292_7   100.        
    x_18      R_292_9   93.            R_292_10  98.         
    x_18      R_292_11  65.            R_292_12  47.         
    x_18      R_292_13  48.            R_292_15  31.         
    x_18      R_292_16  84.            R_292_17  29.         
    x_18      R_292_18  60.            R_292_19  35.         
    x_18      R_292_20  66.            R_292_22  99.         
    x_18      R_292_23  47.            R_292_24  87.         
    x_18      R_292_25  90.            R_292_26  24.         
    x_18      R_292_28  94.            R_292_29  27.         
    x_18      R_292_31  80.         
    x_19      OBJROW     -9.           R_292_0   100.        
    x_19      R_292_1   95.            R_292_2   51.         
    x_19      R_292_3   3.             R_292_4   15.         
    x_19      R_292_5   74.            R_292_6   49.         
    x_19      R_292_7   60.            R_292_8   99.         
    x_19      R_292_9   83.            R_292_10  19.         
    x_19      R_292_12  68.            R_292_13  38.         
    x_19      R_292_14  4.             R_292_15  72.         
    x_19      R_292_16  54.            R_292_18  40.         
    x_19      R_292_19  26.            R_292_21  59.         
    x_19      R_292_22  20.            R_292_25  40.         
    x_19      R_292_27  25.            R_292_28  29.         
    x_19      R_292_29  16.            R_292_30  48.         
    x_19      R_292_31  65.         
    x_20      OBJROW     -5.           R_292_3   18.         
    x_20      R_292_4   55.            R_292_5   26.         
    x_20      R_292_6   98.            R_292_7   3.          
    x_20      R_292_8   20.            R_292_9   70.         
    x_20      R_292_10  18.            R_292_12  54.         
    x_20      R_292_13  62.            R_292_14  39.         
    x_20      R_292_15  81.            R_292_16  95.         
    x_20      R_292_17  12.            R_292_19  92.         
    x_20      R_292_20  39.            R_292_21  87.         
    x_20      R_292_23  12.            R_292_25  93.         
    x_20      R_292_26  30.            R_292_30  27.         
    x_20      R_292_31  85.         
    x_21      OBJROW     -1.           R_292_0   43.         
    x_21      R_292_1   64.            R_292_2   45.         
    x_21      R_292_4   16.            R_292_5   6.          
    x_21      R_292_6   49.            R_292_7   99.         
    x_21      R_292_8   29.            R_292_9   79.         
    x_21      R_292_10  16.            R_292_11  74.         
    x_21      R_292_12  23.            R_292_13  80.         
    x_21      R_292_14  10.            R_292_15  41.         
    x_21      R_292_16  31.            R_292_17  59.         
    x_21      R_292_18  59.            R_292_19  30.         
    x_21      R_292_20  14.            R_292_21  73.         
    x_21      R_292_22  34.            R_292_23  31.         
    x_21      R_292_24  30.            R_292_25  22.         
    x_21      R_292_29  20.            R_292_31  98.         
    x_22      OBJROW     -1.           R_292_0   1.          
    x_22      R_292_1   1.             R_292_2   5.          
    x_22      R_292_3   1.             R_292_4   49.         
    x_22      R_292_7   35.            R_292_9   67.         
    x_22      R_292_11  73.            R_292_12  62.         
    x_22      R_292_14  38.            R_292_16  54.         
    x_22      R_292_17  74.            R_292_18  55.         
    x_22      R_292_19  42.            R_292_20  73.         
    x_22      R_292_21  53.            R_292_23  12.         
    x_22      R_292_26  68.            R_292_27  21.         
    x_22      R_292_29  14.            R_292_30  28.         
    x_22      R_292_31  66.         
    x_23      OBJROW     -6.           R_292_1   21.         
    x_23      R_292_3   59.            R_292_4   66.         
    x_23      R_292_5   48.            R_292_6   29.         
    x_23      R_292_8   56.            R_292_9   51.         
    x_23      R_292_10  39.            R_292_11  21.         
    x_23      R_292_12  29.            R_292_15  30.         
    x_23      R_292_16  33.            R_292_17  78.         
    x_23      R_292_18  4.             R_292_19  52.         
    x_23      R_292_20  92.            R_292_21  63.         
    x_23      R_292_22  42.            R_292_24  83.         
    x_23      R_292_25  43.            R_292_26  7.          
    x_23      R_292_27  33.            R_292_29  87.         
    x_23      R_292_30  33.            R_292_31  42.         
    x_24      OBJROW     -8.           R_292_0   84.         
    x_24      R_292_1   50.            R_292_2   62.         
    x_24      R_292_3   89.            R_292_5   23.         
    x_24      R_292_6   7.             R_292_7   9.          
    x_24      R_292_9   3.             R_292_10  28.         
    x_24      R_292_12  98.            R_292_13  56.         
    x_24      R_292_16  76.            R_292_17  1.          
    x_24      R_292_18  3.             R_292_19  99.         
    x_24      R_292_21  20.            R_292_22  33.         
    x_24      R_292_23  83.            R_292_24  45.         
    x_24      R_292_26  86.            R_292_28  24.         
    x_24      R_292_29  31.            R_292_30  21.         
    x_25      OBJROW     -6.           R_292_0   70.         
    x_25      R_292_2   14.            R_292_3   32.         
    x_25      R_292_4   86.            R_292_5   23.         
    x_25      R_292_6   1.             R_292_7   16.         
    x_25      R_292_8   83.            R_292_9   43.         
    x_25      R_292_10  83.            R_292_11  17.         
    x_25      R_292_12  32.            R_292_14  89.         
    x_25      R_292_15  28.            R_292_16  1.          
    x_25      R_292_17  73.            R_292_18  48.         
    x_25      R_292_19  100.           R_292_21  85.         
    x_25      R_292_22  40.            R_292_25  18.         
    x_25      R_292_26  46.            R_292_27  80.         
    x_25      R_292_28  77.            R_292_29  83.         
    x_26      OBJROW     -7.           R_292_0   78.         
    x_26      R_292_1   80.            R_292_2   9.          
    x_26      R_292_3   78.            R_292_4   4.          
    x_26      R_292_5   25.            R_292_6   67.         
    x_26      R_292_7   56.            R_292_9   44.         
    x_26      R_292_10  18.            R_292_11  34.         
    x_26      R_292_12  42.            R_292_14  6.          
    x_26      R_292_15  27.            R_292_16  57.         
    x_26      R_292_18  27.            R_292_19  10.         
    x_26      R_292_20  15.            R_292_21  54.         
    x_26      R_292_22  76.            R_292_23  66.         
    x_26      R_292_25  96.            R_292_26  16.         
    x_26      R_292_30  92.            R_292_31  69.         
    x_27      OBJROW     -7.           R_292_1   24.         
    x_27      R_292_2   39.            R_292_3   78.         
    x_27      R_292_4   88.            R_292_7   84.         
    x_27      R_292_9   3.             R_292_10  76.         
    x_27      R_292_11  30.            R_292_13  10.         
    x_27      R_292_14  89.            R_292_15  98.         
    x_27      R_292_17  25.            R_292_18  36.         
    x_27      R_292_21  80.            R_292_22  42.         
    x_27      R_292_23  76.            R_292_25  63.         
    x_27      R_292_26  63.            R_292_27  41.         
    x_27      R_292_28  8.             R_292_29  55.         
    x_27      R_292_30  86.         
    x_28      OBJROW     -9.           R_292_0   31.         
    x_28      R_292_2   83.            R_292_3   8.          
    x_28      R_292_4   68.            R_292_6   58.         
    x_28      R_292_7   96.            R_292_9   31.         
    x_28      R_292_10  98.            R_292_11  89.         
    x_28      R_292_12  16.            R_292_13  36.         
    x_28      R_292_14  17.            R_292_15  56.         
    x_28      R_292_16  5.             R_292_17  18.         
    x_28      R_292_18  6.             R_292_19  27.         
    x_28      R_292_20  92.            R_292_21  98.         
    x_28      R_292_23  45.            R_292_24  91.         
    x_28      R_292_25  71.            R_292_26  21.         
    x_28      R_292_27  37.            R_292_28  81.         
    x_28      R_292_29  35.            R_292_30  29.         
    x_29      OBJROW     -3.           R_292_0   62.         
    x_29      R_292_2   58.            R_292_5   53.         
    x_29      R_292_7   68.            R_292_8   55.         
    x_29      R_292_9   60.            R_292_10  85.         
    x_29      R_292_11  23.            R_292_12  19.         
    x_29      R_292_13  16.            R_292_14  4.          
    x_29      R_292_15  7.             R_292_16  78.         
    x_29      R_292_17  51.            R_292_18  77.         
    x_29      R_292_19  81.            R_292_20  73.         
    x_29      R_292_21  75.            R_292_23  42.         
    x_29      R_292_24  28.            R_292_26  47.         
    x_29      R_292_27  99.            R_292_28  51.         
    x_29      R_292_29  91.            R_292_30  84.         
    x_29      R_292_31  42.         
    x_30      OBJROW     -9.           R_292_0   67.         
    x_30      R_292_1   34.            R_292_3   64.         
    x_30      R_292_4   87.            R_292_5   94.         
    x_30      R_292_6   43.            R_292_7   79.         
    x_30      R_292_9   95.            R_292_10  13.         
    x_30      R_292_11  55.            R_292_12  59.         
    x_30      R_292_14  98.            R_292_16  4.          
    x_30      R_292_17  21.            R_292_18  45.         
    x_30      R_292_19  12.            R_292_21  38.         
    x_30      R_292_23  15.            R_292_24  93.         
    x_30      R_292_25  85.            R_292_27  63.         
    x_30      R_292_28  99.            R_292_29  38.         
    x_30      R_292_30  67.            R_292_31  72.         
    x_31      OBJROW     -3.           R_292_0   50.         
    x_31      R_292_1   11.            R_292_3   14.         
    x_31      R_292_4   62.            R_292_5   88.         
    x_31      R_292_6   96.            R_292_7   58.         
    x_31      R_292_8   35.            R_292_11  71.         
    x_31      R_292_12  69.            R_292_13  54.         
    x_31      R_292_15  11.            R_292_16  87.         
    x_31      R_292_17  4.             R_292_18  5.          
    x_31      R_292_19  100.           R_292_20  90.         
    x_31      R_292_21  86.            R_292_22  65.         
    x_31      R_292_23  49.            R_292_24  1.          
    x_31      R_292_25  37.            R_292_26  3.          
    x_31      R_292_27  42.            R_292_28  73.         
    x_31      R_292_29  87.            R_292_30  50.         
    x_31      R_292_31  3.          
RHS
    RHS       R_292_0   1305.          R_292_1   1332.       
    RHS       R_292_2   1407.          R_292_3   1490.       
    RHS       R_292_4   1616.          R_292_5   1340.       
    RHS       R_292_6   1474.          R_292_7   1438.       
    RHS       R_292_8   1350.          R_292_9   1420.       
    RHS       R_292_10  1382.          R_292_11  1487.       
    RHS       R_292_12  1296.          R_292_13  1624.       
    RHS       R_292_14  1495.          R_292_15  1704.       
    RHS       R_292_16  1491.          R_292_17  1454.       
    RHS       R_292_18  1316.          R_292_19  1387.       
    RHS       R_292_20  1511.          R_292_21  1353.       
    RHS       R_292_22  1632.          R_292_23  1552.       
    RHS       R_292_24  1607.          R_292_25  1697.       
    RHS       R_292_26  1516.          R_292_27  1485.       
    RHS       R_292_28  1525.          R_292_29  1641.       
    RHS       R_292_30  1418.          R_292_31  1697.       
BOUNDS
 UI BOUND     x_0       10.         
 UI BOUND     x_1       10.         
 UI BOUND     x_2       10.         
 UI BOUND     x_3       10.         
 UI BOUND     x_4       10.         
 UI BOUND     x_5       10.         
 UI BOUND     x_6       10.         
 UI BOUND     x_7       10.         
 UI BOUND     x_8       10.         
 UI BOUND     x_9       10.         
 UI BOUND     x_10      10.         
 UI BOUND     x_11      10.         
 UI BOUND     x_12      10.         
 UI BOUND     x_13      10.         
 UI BOUND     x_14      10.         
 UI BOUND     x_15      10.         
 UI BOUND     x_16      10.         
 UI BOUND     x_17      10.         
 UI BOUND     x_18      10.         
 UI BOUND     x_19      10.         
 UI BOUND     x_20      10.         
 UI BOUND     x_21      10.         
 UI BOUND     x_22      10.         
 UI BOUND     x_23      10.         
 UI BOUND     x_24      10.         
 UI BOUND     x_25      10.         
 UI BOUND     x_26      10.         
 UI BOUND     x_27      10.         
 UI BOUND     x_28      10.         
 UI BOUND     x_29      10.         
 UI BOUND     x_30      10.         
 UI BOUND     x_31      10.         
ENDATA
